0 9306.08
1 9183.82
2 9153.21
3 9081.19
4 8983.79
5 8865.57
6 8691.87
7 8691.87
8 8691.87
9 8579.90
10 8526.17
11 8526.17
12 8440.17
13 8413.14
14 8413.14
15 8357.20
16 8357.20
17 8324.79
18 8160.09
19 8160.09
20 8160.09
21 8160.09
22 8160.09
23 8147.41
24 8118.07
25 8104.06
26 8010.17
27 8010.17
28 8010.17
29 8010.17
30 8010.17
31 7996.97
32 7983.94
33 7983.94
34 7878.21
35 7796.73
36 7796.73
37 7796.73
38 7796.73
39 7796.73
40 7784.48
41 7784.48
42 7741.24
43 7741.24
44 7741.24
45 7689.33
46 7689.33
47 7689.33
48 7689.33
49 7689.33
50 7689.33
51 7689.33
52 7689.33
53 7689.33
54 7689.33
55 7668.33
56 7668.33
57 7668.33
58 7668.33
59 7641.71
60 7540.96
61 7505.93
62 7505.93
63 7466.52
64 7466.52
65 7466.52
66 7466.52
67 7466.52
68 7466.52
69 7466.52
70 7466.52
71 7466.52
72 7466.52
73 7466.52
74 7466.52
75 7466.52
76 7466.52
77 7466.52
78 7448.63
79 7448.63
80 7448.63
81 7444.99
82 7444.99
83 7441.71
84 7441.71
85 7433.99
86 7433.99
87 7433.99
88 7423.94
89 7423.94
90 7365.02
91 7365.02
92 7365.02
93 7365.02
94 7365.02
95 7365.02
96 7365.02
97 7365.02
98 7264.39
99 7221.72
100 7221.72
101 7221.72
102 7221.72
103 7221.72
104 7212.38
105 7185.86
106 7185.86
107 7185.86
108 7185.86
109 7142.92
110 7142.92
111 7142.92
112 7142.92
113 7142.92
114 7142.92
115 7075.36
116 7075.36
117 7075.36
118 7075.36
119 7075.36
120 7075.36
121 7075.36
122 7075.36
123 7075.36
124 7075.36
125 7075.36
126 7075.36
127 7049.60
128 7049.60
129 7049.60
130 7049.60
131 7028.95
132 7028.95
133 7028.95
134 7028.95
135 7028.95
136 7028.95
137 7028.95
138 7028.95
139 7028.95
140 7028.95
141 7028.95
142 7028.95
143 7028.95
144 7028.95
145 7028.95
146 7028.95
147 7028.95
148 7028.95
149 7028.95
150 7028.95
151 7028.95
152 7028.95
153 7028.95
154 7028.95
155 6946.41
156 6946.41
157 6946.41
158 6946.41
159 6929.90
160 6929.90
161 6929.90
162 6929.90
163 6929.90
164 6929.90
165 6929.90
166 6929.90
167 6929.90
168 6929.90
169 6929.90
170 6929.90
171 6929.90
172 6929.90
173 6929.90
174 6929.90
175 6929.90
176 6929.90
177 6929.90
178 6929.90
179 6929.90
180 6929.90
181 6929.90
182 6929.90
183 6929.90
184 6929.90
185 6919.46
186 6919.46
187 6919.46
188 6919.46
189 6917.18
190 6917.18
191 6917.18
192 6917.18
193 6917.18
194 6917.18
195 6917.18
196 6917.18
197 6917.18
198 6917.18
199 6917.18
200 6917.18
201 6917.18
202 6917.18
203 6917.18
204 6917.18
205 6917.18
206 6917.18
207 6917.18
208 6917.18
209 6917.18
210 6917.18
211 6917.18
212 6917.18
213 6917.18
214 6917.18
215 6882.97
216 6882.97
217 6866.59
218 6866.59
219 6866.59
220 6866.59
221 6866.59
222 6866.59
223 6866.59
224 6866.59
225 6866.59
226 6866.59
227 6866.59
228 6866.59
229 6866.59
230 6866.59
231 6863.63
232 6863.63
233 6863.63
234 6820.58
235 6820.58
236 6820.58
237 6820.58
238 6820.58
239 6820.58
240 6820.58
241 6814.35
242 6814.35
243 6814.35
244 6794.27
245 6794.27
246 6794.27
247 6794.27
248 6794.27
249 6794.27
250 6794.27
251 6784.37
252 6784.37
253 6784.37
254 6784.37
255 6784.37
256 6733.36
257 6733.36
258 6733.36
259 6733.36
260 6733.36
261 6733.36
262 6733.36
263 6699.92
264 6699.92
265 6699.92
266 6699.92
267 6699.92
268 6699.92
269 6699.92
270 6699.92
271 6699.92
272 6699.92
273 6699.92
274 6699.92
275 6663.40
276 6663.40
277 6663.40
278 6663.40
279 6663.40
280 6663.40
281 6663.40
282 6649.80
283 6649.80
284 6649.80
285 6614.68
286 6614.68
287 6614.68
288 6614.68
289 6614.68
290 6614.68
291 6614.68
292 6614.68
293 6614.68
294 6614.68
295 6614.68
296 6614.68
297 6614.68
298 6614.68
299 6595.24
300 6595.24
301 6595.24
302 6595.24
303 6595.24
304 6595.24
305 6595.24
306 6595.24
307 6595.24
308 6595.24
309 6595.24
310 6595.24
311 6595.24
312 6595.24
313 6595.24
314 6595.24
315 6595.24
316 6594.54
317 6594.54
318 6594.54
319 6594.54
320 6594.54
321 6549.75
322 6549.75
323 6549.75
324 6549.75
325 6549.75
326 6549.75
327 6549.75
328 6549.75
329 6549.75
330 6549.75
331 6549.75
332 6549.75
333 6549.75
334 6549.75
335 6549.75
336 6549.75
337 6549.75
338 6549.75
339 6549.75
340 6549.75
341 6549.75
342 6549.75
343 6549.75
344 6549.75
345 6549.75
346 6549.75
347 6549.75
348 6549.75
349 6549.75
350 6549.75
351 6549.75
352 6549.75
353 6549.75
354 6549.75
355 6521.60
356 6521.60
357 6521.60
358 6521.60
359 6521.60
360 6521.60
361 6521.60
362 6521.60
363 6521.60
364 6521.60
365 6521.60
366 6521.60
367 6521.60
368 6521.60
369 6521.60
370 6521.60
371 6521.60
372 6521.60
373 6521.60
374 6521.60
375 6521.60
376 6521.60
377 6521.60
378 6521.60
379 6521.60
380 6521.60
381 6521.60
382 6521.60
383 6521.60
384 6521.60
385 6521.60
386 6521.60
387 6521.60
388 6521.60
389 6521.60
390 6521.60
391 6521.60
392 6521.16
393 6521.16
394 6521.16
395 6521.16
396 6521.16
397 6521.16
398 6521.16
399 6521.16
400 6521.16
401 6521.16
402 6521.16
403 6521.16
404 6521.16
405 6521.16
406 6521.16
407 6521.16
408 6521.16
409 6521.16
410 6521.16
411 6521.16
412 6521.16
413 6521.16
414 6521.16
415 6521.16
416 6521.16
417 6521.16
418 6521.16
419 6521.16
420 6521.16
421 6521.16
422 6521.16
423 6521.16
424 6521.16
425 6521.16
426 6521.16
427 6521.16
428 6521.16
429 6521.16
430 6521.16
431 6521.16
432 6521.16
433 6521.16
434 6521.16
435 6521.16
436 6521.16
437 6521.16
438 6521.16
439 6521.16
440 6521.16
441 6521.16
442 6521.16
443 6521.16
444 6521.16
445 6521.16
446 6521.16
447 6521.16
448 6521.16
449 6521.16
450 6521.16
451 6521.16
452 6521.16
453 6521.16
454 6521.16
455 6521.16
456 6521.16
457 6521.16
458 6521.16
459 6521.16
460 6521.16
461 6509.57
462 6509.57
463 6509.57
464 6509.57
465 6509.57
466 6509.57
467 6509.57
468 6509.57
469 6509.57
470 6509.57
471 6509.57
472 6509.57
473 6509.57
474 6509.57
475 6509.57
476 6509.57
477 6509.57
478 6509.57
479 6509.57
480 6509.57
481 6509.57
482 6509.57
483 6509.57
484 6469.42
485 6469.42
486 6469.42
487 6469.42
488 6469.42
489 6469.42
490 6469.42
491 6469.42
492 6469.42
493 6469.42
494 6469.42
495 6469.42
496 6469.42
497 6469.42
498 6469.42
499 6469.42
500 6469.42
501 6469.42
502 6469.42
503 6469.42
504 6469.42
505 6469.42
506 6469.42
507 6469.42
508 6469.42
509 6469.42
510 6469.42
511 6469.42
512 6469.42
513 6469.42
514 6469.42
515 6469.42
516 6469.42
517 6469.42
518 6469.42
519 6469.42
520 6451.08
521 6451.08
522 6451.08
523 6451.08
524 6451.08
525 6451.08
526 6451.08
527 6451.08
528 6451.08
529 6451.08
530 6451.08
531 6451.08
532 6451.08
533 6451.08
534 6451.08
535 6451.08
536 6451.08
537 6451.08
538 6451.08
539 6451.08
540 6451.08
541 6451.08
542 6451.08
543 6451.08
544 6451.08
545 6451.08
546 6451.08
547 6451.08
548 6451.08
549 6451.08
550 6451.08
551 6451.08
552 6451.08
553 6451.08
554 6451.08
555 6451.08
556 6451.08
557 6451.08
558 6451.08
559 6451.08
560 6451.08
561 6451.08
562 6451.08
563 6451.08
564 6451.08
565 6451.08
566 6451.08
567 6451.08
568 6451.08
569 6451.08
570 6451.08
571 6451.08
572 6451.08
573 6451.08
574 6451.08
575 6451.08
576 6451.08
577 6451.08
578 6451.08
579 6451.08
580 6451.08
581 6451.08
582 6451.08
583 6451.08
584 6451.08
585 6451.08
586 6451.08
587 6451.08
588 6451.08
589 6451.08
590 6443.16
591 6443.16
592 6443.16
593 6443.16
594 6443.16
595 6443.16
596 6443.16
597 6443.16
598 6443.16
599 6443.16
600 6443.16
601 6443.16
602 6443.16
603 6443.16
604 6443.16
605 6443.16
606 6443.16
607 6443.16
608 6443.16
609 6443.16
610 6443.16
611 6443.16
612 6443.16
613 6443.16
614 6443.16
615 6443.16
616 6443.16
617 6443.16
618 6443.16
619 6443.16
620 6443.16
621 6443.16
622 6443.16
623 6443.16
624 6443.16
625 6443.16
626 6438.06
627 6438.06
628 6438.06
629 6438.06
630 6438.06
631 6438.06
632 6438.06
633 6438.06
634 6438.06
635 6438.06
636 6438.06
637 6438.06
638 6438.06
639 6438.06
640 6438.06
641 6438.06
642 6438.06
643 6438.06
644 6438.06
645 6438.06
646 6438.06
647 6438.06
648 6438.06
649 6438.06
650 6438.06
651 6438.06
652 6438.06
653 6438.06
654 6438.06
655 6438.06
656 6438.06
657 6438.06
658 6438.06
659 6438.06
660 6438.06
661 6438.06
662 6438.06
663 6438.06
664 6438.06
665 6438.06
666 6438.06
667 6438.06
668 6438.06
669 6438.06
670 6438.06
671 6438.06
672 6438.06
673 6438.06
674 6438.06
675 6438.06
676 6438.06
677 6438.06
678 6438.06
679 6438.06
680 6438.06
681 6438.06
682 6438.06
683 6438.06
684 6438.06
685 6438.06
686 6438.06
687 6438.06
688 6438.06
689 6438.06
690 6438.06
691 6438.06
692 6438.06
693 6438.06
694 6438.06
695 6438.06
696 6438.06
697 6438.06
698 6438.06
699 6438.06
700 6438.06
701 6438.06
702 6438.06
703 6438.06
704 6438.06
705 6438.06
706 6438.06
707 6438.06
708 6438.06
709 6438.06
710 6438.06
711 6431.82
712 6431.82
713 6431.82
714 6431.82
715 6431.82
716 6431.82
717 6431.82
718 6431.82
719 6431.82
720 6431.82
721 6403.19
722 6403.19
723 6403.19
724 6403.19
725 6403.19
726 6403.19
727 6403.19
728 6403.19
729 6403.19
730 6403.19
731 6403.19
732 6403.19
733 6403.19
734 6403.19
735 6403.19
736 6403.19
737 6403.19
738 6403.19
739 6403.19
740 6403.19
741 6403.19
742 6403.19
743 6403.19
744 6403.19
745 6403.19
746 6403.19
747 6403.19
748 6403.19
749 6403.19
750 6403.19
751 6403.19
752 6403.19
753 6403.19
754 6403.19
755 6403.19
756 6403.19
757 6403.19
758 6403.19
759 6403.19
760 6403.19
761 6403.19
762 6403.19
763 6403.19
764 6403.19
765 6403.19
766 6403.19
767 6403.19
768 6403.19
769 6403.19
770 6403.19
771 6403.19
772 6403.19
773 6403.19
774 6403.19
775 6403.19
776 6403.19
777 6403.19
778 6403.19
779 6403.19
780 6403.19
781 6403.19
782 6403.19
783 6403.19
784 6403.19
785 6403.19
786 6403.19
787 6403.19
788 6393.96
789 6393.96
790 6393.96
791 6393.96
792 6393.96
793 6393.96
794 6393.96
795 6393.96
796 6393.96
797 6393.96
798 6393.96
799 6393.96
800 6393.96
801 6393.96
802 6393.96
803 6393.96
804 6393.96
805 6393.96
806 6393.96
807 6393.96
808 6393.96
809 6393.96
810 6393.96
811 6393.96
812 6393.96
813 6393.96
814 6393.96
815 6393.96
816 6393.96
817 6393.96
818 6393.96
819 6393.96
820 6393.96
821 6393.96
822 6393.96
823 6393.96
824 6393.96
825 6393.96
826 6393.96
827 6393.96
828 6393.96
829 6393.96
830 6393.96
831 6393.96
832 6393.96
833 6393.96
834 6393.96
835 6393.96
836 6393.96
837 6393.96
838 6393.96
839 6393.96
840 6393.96
841 6393.96
842 6378.15
843 6378.15
844 6378.15
845 6378.15
846 6378.15
847 6378.15
848 6378.15
849 6378.15
850 6378.15
851 6378.15
852 6378.15
853 6378.15
854 6378.15
855 6378.15
856 6378.15
857 6378.15
858 6378.15
859 6378.15
860 6378.15
861 6378.15
862 6378.15
863 6378.15
864 6378.15
865 6378.15
866 6378.15
867 6378.15
868 6378.15
869 6378.15
870 6357.79
871 6357.79
872 6357.79
873 6357.79
874 6357.79
875 6330.20
876 6330.20
877 6330.20
878 6330.20
879 6330.20
880 6330.20
881 6330.20
882 6330.20
883 6330.20
884 6330.20
885 6330.20
886 6330.20
887 6330.20
888 6330.20
889 6330.20
890 6330.20
891 6330.20
892 6330.20
893 6330.20
894 6330.20
895 6330.20
896 6330.20
897 6330.20
898 6330.20
899 6330.20
900 6330.20
901 6330.20
902 6330.20
903 6330.20
904 6330.20
905 6330.20
906 6330.20
907 6330.20
908 6330.20
909 6330.20
910 6330.20
911 6330.20
912 6330.20
913 6330.20
914 6330.20
915 6330.20
916 6330.20
917 6330.20
918 6330.20
919 6330.20
920 6330.20
921 6330.20
922 6330.20
923 6330.20
924 6330.20
925 6330.20
926 6330.20
927 6330.20
928 6330.20
929 6330.20
930 6330.20
931 6330.20
932 6330.20
933 6330.20
934 6330.20
935 6330.20
936 6330.20
937 6330.20
938 6330.20
939 6330.20
940 6330.20
941 6330.20
942 6319.15
943 6319.15
944 6319.15
945 6319.15
946 6319.15
947 6319.15
948 6319.15
949 6319.15
950 6319.15
951 6319.15
952 6319.15
953 6319.15
954 6319.15
955 6319.15
956 6319.15
957 6319.15
958 6319.15
959 6319.15
960 6319.15
961 6263.58
962 6263.58
963 6263.58
964 6263.58
965 6263.58
966 6263.58
967 6263.58
968 6263.58
969 6263.58
970 6263.58
971 6263.58
972 6263.58
973 6263.58
974 6263.58
975 6263.58
976 6263.58
977 6263.58
978 6263.58
979 6263.58
980 6263.58
981 6263.58
982 6263.58
983 6263.58
984 6263.58
985 6263.58
986 6263.58
987 6263.58
988 6263.58
989 6263.58
990 6263.58
991 6263.58
992 6263.58
993 6263.58
994 6263.58
995 6263.58
996 6263.58
997 6263.58
998 6263.58
999 6263.58
20 9 5 0 0 0 